param n := 60;
param c := 3000
param : V : p w :=
   0	 490	 480
   1	 266	 256
   2	 274	 264
   3	 383	 373
   4	 307	 297
   5	 340	 330
   6	 422	 412
   7	 291	 281
   8	 317	 307
   9	 402	 392
  10	 296	 286
  11	 332	 322
  12	 442	 432
  13	 275	 265
  14	 313	 303
  15	 488	 478
  16	 265	 255
  17	 277	 267
  18	 416	 406
  19	 278	 268
  20	 336	 326
  21	 375	 365
  22	 265	 255
  23	 390	 380
  24	 417	 407
  25	 289	 279
  26	 324	 314
  27	 388	 378
  28	 303	 293
  29	 339	 329
  30	 372	 362
  31	 283	 273
  32	 375	 365
  33	 497	 487
  34	 262	 252
  35	 271	 261
  36	 432	 422
  37	 270	 260
  38	 328	 318
  39	 420	 410
  40	 276	 266
  41	 334	 324
  42	 420	 410
  43	 273	 263
  44	 337	 327
  45	 380	 370
  46	 270	 260
  47	 380	 370
  48	 464	 454
  49	 260	 250
  50	 306	 296
  51	 376	 366
  52	 291	 281
  53	 363	 353
  54	 486	 476
  55	 270	 260
  56	 274	 264
  57	 475	 465
  58	 266	 256
  59	 289	 279
;

set E :=
   0	   3
   0	   6
   0	  19
   0	  27
   0	  30
   0	  32
   0	  34
   0	  36
   0	  38
   0	  43
   0	  47
   0	  49
   0	  51
   0	  52
   0	  54
   0	  55
   1	   2
   1	   4
   1	   5
   1	   7
   1	   8
   1	   9
   1	  10
   1	  11
   1	  12
   1	  13
   1	  15
   1	  24
   1	  25
   1	  26
   1	  27
   1	  30
   1	  34
   1	  36
   1	  38
   1	  39
   1	  42
   1	  47
   1	  49
   1	  52
   1	  53
   1	  56
   2	   3
   2	  11
   2	  13
   2	  21
   2	  24
   2	  28
   2	  34
   2	  39
   2	  43
   2	  44
   2	  50
   2	  51
   3	   5
   3	  11
   3	  12
   3	  14
   3	  17
   3	  23
   3	  24
   3	  28
   3	  35
   3	  37
   3	  38
   3	  42
   3	  45
   3	  47
   3	  52
   3	  53
   3	  55
   4	   5
   4	   8
   4	   9
   4	  10
   4	  14
   4	  16
   4	  17
   4	  19
   4	  25
   4	  31
   4	  35
   4	  37
   4	  44
   4	  51
   4	  55
   4	  56
   4	  57
   5	   8
   5	   9
   5	  12
   5	  13
   5	  14
   5	  15
   5	  16
   5	  17
   5	  18
   5	  19
   5	  21
   5	  23
   5	  32
   5	  37
   5	  38
   5	  42
   5	  52
   5	  53
   5	  54
   5	  57
   5	  58
   6	   7
   6	  13
   6	  21
   6	  27
   6	  32
   6	  33
   6	  34
   6	  35
   6	  39
   6	  41
   6	  58
   6	  59
   7	  16
   7	  20
   7	  26
   7	  35
   7	  36
   7	  37
   7	  39
   7	  40
   7	  46
   7	  49
   7	  51
   7	  59
   8	  14
   8	  17
   8	  27
   8	  28
   8	  33
   8	  35
   8	  43
   8	  45
   8	  47
   8	  48
   8	  49
   8	  57
   8	  58
   9	  11
   9	  13
   9	  18
   9	  22
   9	  25
   9	  34
   9	  35
   9	  42
   9	  53
   9	  54
   9	  58
  10	  12
  10	  13
  10	  14
  10	  15
  10	  16
  10	  18
  10	  21
  10	  25
  10	  26
  10	  27
  10	  28
  10	  32
  10	  35
  10	  41
  10	  43
  10	  47
  10	  48
  10	  51
  10	  52
  10	  53
  10	  54
  10	  58
  11	  12
  11	  13
  11	  20
  11	  21
  11	  23
  11	  24
  11	  27
  11	  28
  11	  30
  11	  37
  11	  41
  11	  49
  11	  50
  11	  51
  11	  54
  12	  19
  12	  21
  12	  31
  12	  32
  12	  34
  12	  37
  12	  38
  12	  40
  12	  42
  12	  43
  12	  48
  12	  52
  13	  15
  13	  17
  13	  18
  13	  20
  13	  24
  13	  26
  13	  30
  13	  33
  13	  35
  13	  38
  13	  39
  13	  44
  13	  49
  13	  51
  13	  52
  13	  54
  13	  55
  13	  56
  14	  19
  14	  31
  14	  34
  14	  35
  14	  40
  14	  41
  14	  42
  14	  44
  14	  48
  14	  51
  15	  20
  15	  31
  15	  37
  15	  38
  15	  41
  15	  44
  15	  45
  15	  50
  15	  53
  15	  57
  16	  17
  16	  20
  16	  24
  16	  35
  16	  38
  16	  39
  16	  43
  16	  46
  16	  52
  16	  53
  16	  54
  16	  58
  16	  59
  17	  18
  17	  23
  17	  24
  17	  25
  17	  33
  17	  36
  17	  37
  17	  42
  17	  43
  17	  45
  17	  46
  17	  48
  17	  55
  18	  19
  18	  24
  18	  34
  18	  37
  18	  38
  18	  40
  18	  41
  18	  44
  18	  49
  18	  50
  18	  52
  18	  53
  18	  54
  19	  23
  19	  24
  19	  25
  19	  28
  19	  35
  19	  37
  19	  48
  19	  50
  19	  53
  19	  54
  19	  57
  20	  22
  20	  24
  20	  29
  20	  30
  20	  33
  20	  35
  20	  38
  20	  39
  20	  42
  20	  43
  20	  57
  21	  23
  21	  26
  21	  35
  21	  38
  21	  40
  21	  52
  21	  53
  21	  58
  22	  24
  22	  26
  22	  33
  22	  44
  22	  45
  22	  46
  22	  47
  22	  54
  22	  55
  22	  56
  23	  24
  23	  25
  23	  28
  23	  29
  23	  32
  23	  36
  23	  37
  23	  39
  23	  40
  23	  46
  23	  50
  23	  52
  23	  53
  23	  59
  24	  27
  24	  28
  24	  33
  24	  37
  24	  39
  24	  48
  24	  53
  24	  57
  25	  30
  25	  33
  25	  35
  25	  53
  26	  27
  26	  35
  26	  36
  26	  50
  26	  51
  26	  54
  26	  55
  26	  56
  26	  57
  26	  59
  27	  28
  27	  29
  27	  30
  27	  31
  27	  33
  27	  35
  27	  36
  27	  37
  27	  39
  27	  40
  27	  41
  27	  47
  27	  51
  27	  53
  27	  54
  27	  56
  27	  57
  28	  29
  28	  32
  28	  34
  28	  38
  28	  39
  28	  40
  28	  41
  28	  44
  28	  45
  28	  46
  28	  50
  28	  54
  29	  30
  29	  32
  29	  33
  29	  36
  29	  37
  29	  40
  29	  42
  29	  44
  29	  49
  29	  53
  29	  56
  29	  57
  30	  31
  30	  34
  30	  35
  30	  36
  30	  40
  30	  42
  30	  44
  30	  45
  30	  50
  30	  52
  30	  54
  30	  55
  30	  57
  31	  34
  31	  36
  31	  38
  31	  39
  31	  45
  31	  48
  31	  49
  31	  51
  31	  52
  31	  57
  32	  33
  32	  34
  32	  35
  32	  37
  32	  41
  32	  45
  32	  48
  32	  52
  32	  54
  33	  36
  33	  39
  33	  41
  33	  45
  33	  48
  33	  51
  33	  54
  33	  55
  33	  57
  33	  59
  34	  35
  34	  36
  34	  42
  34	  47
  34	  50
  34	  54
  34	  58
  34	  59
  35	  39
  35	  48
  35	  50
  35	  55
  35	  59
  36	  37
  36	  42
  36	  45
  36	  50
  36	  52
  36	  54
  36	  58
  37	  43
  37	  44
  37	  46
  37	  49
  37	  51
  37	  59
  38	  40
  38	  44
  38	  49
  38	  54
  38	  56
  38	  57
  39	  42
  39	  47
  39	  51
  39	  55
  39	  57
  39	  59
  40	  41
  40	  43
  40	  44
  40	  45
  40	  49
  40	  52
  40	  56
  40	  57
  40	  58
  40	  59
  41	  42
  41	  44
  41	  45
  41	  47
  41	  51
  41	  55
  41	  57
  41	  58
  42	  43
  42	  44
  42	  45
  42	  49
  42	  52
  43	  44
  43	  45
  43	  50
  43	  52
  44	  45
  44	  46
  44	  47
  44	  50
  44	  51
  45	  47
  45	  51
  45	  54
  45	  55
  45	  56
  45	  57
  45	  58
  46	  47
  46	  52
  46	  56
  46	  57
  46	  59
  47	  48
  47	  49
  47	  57
  47	  58
  48	  49
  48	  50
  48	  53
  48	  56
  49	  51
  49	  53
  49	  57
  51	  55
  51	  57
  51	  58
  54	  55
  55	  59
;
